(set-logic QF_S)
(declare-fun var0 () String)
(declare-fun var1 () Int)
(declare-fun var2 () String)
(declare-fun var3 () Int)
(declare-fun var4 () Int)
(declare-fun var5 () String)
(declare-fun var6 () String)
(declare-fun var7 () Int)
(assert (str.in.re (str.at var0 var1) (re.+ re.allchar)))
(assert (> (str.to.int (str.substr var2 var3 var4)) (str.indexof (str.replace var5 var6 var0) (str.replace var0 "~-t]" var6) (str.to.int var2))))
(assert (str.contains (str.replace var0 var5 var6) (str.substr var5 var7 var4)))
(assert (<= (str.len var0) (str.len var5)))
(check-sat)